<number of tasks>
100

<cycle time>
1000

<order strength>
0.596


<task times>
1 154
2 183
3 76
4 187
5 78
6 262
7 154
8 30
9 83
10 47
11 177
12 49
13 237
14 28
15 241
16 183
17 135
18 96
19 108
20 110
21 325
22 275
23 108
24 160
25 108
26 143
27 201
28 238
29 149
30 149
31 347
32 68
33 83
34 53
35 97
36 92
37 106
38 200
39 150
40 141
41 66
42 207
43 167
44 108
45 67
46 216
47 139
48 123
49 51
50 28
51 34
52 78
53 149
54 180
55 140
56 250
57 119
58 315
59 119
60 117
61 185
62 212
63 273
64 291
65 166
66 81
67 81
68 143
69 109
70 160
71 134
72 143
73 63
74 81
75 183
76 99
77 236
78 181
79 151
80 229
81 137
82 118
83 79
84 164
85 82
86 151
87 321
88 132
89 54
90 113
91 171
92 22
93 97
94 163
95 162
96 195
97 62
98 82
99 133
100 103

<precedence relations>
1,19
2,19
3,19
4,64
5,89
6,75
7,10
7,11
7,12
8,9
8,13
8,14
9,19
10,19
11,75
12,39
13,15
13,17
14,16
14,18
15,19
16,89
17,39
18,20
18,21
18,22
18,23
18,24
18,25
19,26
19,27
19,28
19,29
19,30
19,31
19,32
19,33
19,34
19,35
19,36
19,37
19,38
19,39
19,40
20,64
21,39
22,39
23,39
24,39
25,41
25,50
25,59
26,51
27,66
28,42
28,59
28,69
29,42
29,57
29,69
30,41
30,43
30,56
30,62
30,66
30,69
31,41
31,42
31,51
31,52
31,63
32,41
32,42
32,69
32,70
33,41
33,55
33,57
33,59
34,50
34,51
34,54
35,50
35,62
36,41
36,43
37,43
37,53
37,56
37,69
38,42
38,69
39,41
39,44
39,45
39,46
39,47
39,48
39,49
39,50
40,41
40,65
40,66
40,68
40,70
41,64
42,64
43,75
44,52
45,52
45,53
46,55
46,57
46,59
47,54
47,55
48,91
48,96
49,52
50,53
50,55
51,57
51,65
51,69
51,70
52,64
53,75
54,57
54,59
54,76
55,56
55,58
55,60
56,64
57,75
58,61
58,63
59,61
59,62
60,96
61,64
62,64
63,65
63,66
63,67
63,68
63,69
63,70
64,71
64,72
64,73
64,74
64,75
65,89
66,89
67,75
68,75
69,76
69,82
70,75
71,98
71,99
72,98
73,86
73,88
73,89
73,91
74,81
75,77
75,78
75,79
75,80
77,86
77,91
78,85
79,82
79,83
80,84
80,86
80,87
80,97
82,85
82,86
83,84
83,87
83,88
84,89
85,91
86,90
86,98
87,90
87,98
88,96
89,92
89,93
89,94
89,95
90,96
91,97
91,98
92,100
95,100
96,99
98,100

<end>
